p cnf 12 50 
-8 -9 -6 0
-1 -9 -5 0
11 12 -3 0
9 6 -7 0
-5 -1 2 0
-11 4 -8 0
-3 9 -1 0
8 -2 1 0
9 5 2 0
12 -11 8 0
-4 -3 -2 0
-1 8 2 0
-5 4 -7 0
-1 6 11 0
11 7 8 0
5 3 2 0
-8 3 5 0
-1 6 8 0
-11 -4 -1 0
-7 5 6 0
6 7 11 0
-6 -2 8 0
-1 9 7 0
3 8 -12 0
-8 -9 -2 0
11 -2 10 0
-10 4 1 0
5 12 -6 0
-8 -11 -5 0
-7 9 4 0
9 12 -11 0
-5 -7 -11 0
5 -8 -11 0
-6 -1 -7 0
12 5 -3 0
3 -5 6 0
-12 -10 8 0
-9 1 -7 0
-5 -10 6 0
-12 4 7 0
-10 1 6 0
5 -1 2 0
-3 -9 8 0
9 8 11 0
-9 6 -11 0
-3 -12 -6 0
-11 -3 -12 0
-8 12 -11 0
2 6 -12 0
12 -3 -8 0
